 Code   433
 Dimension, Fixed Cost
   100        3000
 Facility, Client, Transportation Cost
     1       12           3
     1       20           3
     1       22           2
     1       30           0
     1       42           3
     1       60           3
     1       61           3
     1       67           0
     1       75           4
     1       87           2
     2        4           3
     2       19           3
     2       31           1
     2       34           2
     2       57           4
     2       61           0
     2       79           2
     2       82           0
     2       83           0
     2       84           4
     3        3           2
     3       22           0
     3       25           4
     3       36           2
     3       38           3
     3       40           4
     3       45           1
     3       69           2
     3       86           2
     3       90           1
     4        9           3
     4       14           1
     4       18           1
     4       20           0
     4       23           3
     4       42           1
     4       47           2
     4       51           3
     4       66           0
     4       72           0
     5        3           1
     5        5           0
     5        8           4
     5       16           4
     5       28           2
     5       36           1
     5       49           3
     5       50           3
     5       60           3
     5       65           3
     6       16           1
     6       19           3
     6       28           3
     6       35           4
     6       36           3
     6       43           3
     6       46           2
     6       50           0
     6       73           3
     6       74           3
     7       12           0
     7       27           1
     7       37           4
     7       41           2
     7       68           4
     7       89           3
     7       90           3
     7       92           0
     7       94           1
     7       95           1
     8       23           2
     8       53           2
     8       72           0
     8       86           1
     8       95           1
     8       96           0
     8       97           4
     8       98           0
     8       99           0
     8      100           0
     9        1           0
     9        4           1
     9       21           4
     9       38           0
     9       40           3
     9       41           3
     9       43           0
     9       48           1
     9       51           3
     9       52           3
    10        2           4
    10       10           2
    10       15           0
    10       16           1
    10       21           4
    10       33           3
    10       39           4
    10       51           4
    10       55           2
    10       59           3
    11       17           0
    11       24           1
    11       28           3
    11       39           2
    11       56           2
    11       59           1
    11       62           1
    11       63           1
    11       79           1
    11       81           1
    12        4           1
    12       11           0
    12       13           3
    12       24           3
    12       29           3
    12       35           3
    12       39           4
    12       58           1
    12       63           4
    12       68           0
    13        4           1
    13       15           4
    13       49           4
    13       71           0
    13       80           2
    13       92           3
    13       97           3
    13       98           2
    13       99           4
    13      100           2
    14        1           0
    14       11           3
    14       17           0
    14       26           0
    14       31           4
    14       44           0
    14       54           0
    14       55           1
    14       68           3
    14       72           1
    15        8           1
    15        9           0
    15       12           4
    15       27           1
    15       43           4
    15       67           1
    15       70           2
    15       82           2
    15       86           4
    15       89           0
    16       18           0
    16       30           1
    16       33           1
    16       50           4
    16       52           1
    16       78           1
    16       84           2
    16       89           3
    16       90           2
    16       91           3
    17       16           1
    17       23           1
    17       30           4
    17       31           0
    17       36           0
    17       42           1
    17       56           2
    17       58           3
    17       65           0
    17       72           1
    18       45           3
    18       46           4
    18       48           4
    18       52           4
    18       57           4
    18       70           0
    18       73           3
    18       74           0
    18       81           4
    18       90           0
    19       12           3
    19       18           2
    19       31           3
    19       34           1
    19       39           0
    19       51           1
    19       52           2
    19       57           2
    19       60           3
    19       77           2
    20        6           0
    20       13           4
    20       21           1
    20       28           0
    20       48           2
    20       59           3
    20       68           3
    20       75           4
    20       78           1
    20       83           1
    21        2           0
    21        8           3
    21       13           0
    21       19           2
    21       27           3
    21       29           4
    21       40           0
    21       57           2
    21       63           3
    21       64           3
    22       13           1
    22       25           2
    22       26           2
    22       37           2
    22       43           2
    22       44           2
    22       49           1
    22       68           4
    22       77           3
    22       84           0
    23       10           2
    23       31           4
    23       41           4
    23       47           1
    23       48           3
    23       86           3
    23       93           3
    23       94           4
    23       96           0
    23       97           0
    24       22           0
    24       29           0
    24       30           3
    24       49           4
    24       60           2
    24       61           3
    24       72           1
    24       74           2
    24       79           4
    24       82           0
    25        3           2
    25        4           3
    25       11           0
    25       17           1
    25       51           3
    25       52           3
    25       64           3
    25       67           1
    25       73           4
    25       75           1
    26        3           1
    26        4           1
    26       10           2
    26       15           0
    26       23           3
    26       32           3
    26       42           0
    26       54           2
    26       62           3
    26       66           1
    27        1           1
    27        3           3
    27        7           4
    27       10           2
    27       21           0
    27       27           2
    27       33           2
    27       42           4
    27       71           0
    27       73           3
    28        3           2
    28       14           3
    28       29           0
    28       32           4
    28       35           0
    28       37           0
    28       40           1
    28       53           4
    28       55           3
    28       61           2
    29        4           3
    29        5           0
    29       23           2
    29       29           3
    29       30           1
    29       39           1
    29       51           3
    29       55           4
    29       73           0
    29       86           2
    30        4           4
    30        9           1
    30       24           3
    30       42           4
    30       61           1
    30       82           0
    30       84           1
    30       91           1
    30       92           2
    30       93           0
    31       14           1
    31       34           0
    31       38           4
    31       39           0
    31       48           3
    31       63           0
    31       64           3
    31       68           3
    31       76           1
    31       78           3
    32        3           3
    32       17           3
    32       37           1
    32       47           3
    32       75           3
    32       76           3
    32       80           4
    32       81           1
    32       84           3
    32       85           1
    33        6           4
    33        8           1
    33       12           1
    33       34           2
    33       49           4
    33       60           0
    33       71           4
    33       92           0
    33       95           0
    33       98           2
    34       10           4
    34       16           3
    34       36           1
    34       47           0
    34       48           0
    34       49           1
    34       62           3
    34       70           0
    34       83           4
    34       94           1
    35        1           1
    35        6           4
    35        9           2
    35       17           4
    35       18           2
    35       19           3
    35       51           2
    35       65           1
    35       71           1
    35       89           3
    36        4           2
    36        6           2
    36       14           3
    36       53           3
    36       56           4
    36       63           1
    36       65           2
    36       70           2
    36       76           2
    36       85           2
    37       21           4
    37       24           0
    37       33           2
    37       35           3
    37       51           0
    37       53           4
    37       69           1
    37       72           1
    37       77           2
    37       83           3
    38       20           0
    38       23           2
    38       30           1
    38       41           1
    38       43           3
    38       54           2
    38       59           0
    38       61           3
    38       86           1
    38       88           0
    39        5           1
    39        6           2
    39       27           1
    39       34           0
    39       41           3
    39       46           1
    39       60           4
    39       70           3
    39       71           4
    39       74           2
    40       13           1
    40       14           1
    40       19           1
    40       24           3
    40       33           0
    40       39           2
    40       45           3
    40       75           4
    40       84           4
    40       89           3
    41        7           2
    41       13           0
    41       14           4
    41       15           4
    41       24           0
    41       26           3
    41       34           2
    41       35           3
    41       54           1
    41       62           2
    42        3           3
    42       13           4
    42       18           0
    42       44           3
    42       45           0
    42       60           4
    42       68           2
    42       78           1
    42       81           2
    42       90           3
    43       11           2
    43       22           0
    43       25           0
    43       28           3
    43       31           3
    43       33           3
    43       37           4
    43       58           4
    43       73           1
    43       87           3
    44        1           1
    44       18           1
    44       49           4
    44       64           2
    44       71           4
    44       74           3
    44       92           2
    44       95           3
    44       99           0
    44      100           0
    45       11           2
    45       45           3
    45       49           1
    45       76           1
    45       89           1
    45       90           3
    45       95           4
    45       97           3
    45       98           4
    45      100           3
    46        5           1
    46        7           4
    46       15           1
    46       20           3
    46       23           3
    46       37           1
    46       42           3
    46       64           2
    46       76           2
    46       83           1
    47       22           3
    47       23           3
    47       30           1
    47       43           0
    47       44           2
    47       47           4
    47       53           1
    47       56           1
    47       65           4
    47       82           0
    48        7           1
    48       25           3
    48       42           4
    48       46           1
    48       54           4
    48       62           1
    48       64           2
    48       66           2
    48       78           1
    48       79           2
    49        5           3
    49       20           2
    49       25           1
    49       32           0
    49       39           2
    49       40           3
    49       59           4
    49       69           1
    49       81           1
    49       82           2
    50        2           1
    50        7           1
    50       12           4
    50       50           4
    50       60           2
    50       63           0
    50       65           4
    50       66           0
    50       67           3
    50       76           0
    51       11           0
    51       26           1
    51       32           3
    51       42           4
    51       70           2
    51       72           3
    51       80           4
    51       84           1
    51       92           1
    51       96           3
    52       11           4
    52       13           4
    52       15           0
    52       28           4
    52       29           0
    52       48           3
    52       51           2
    52       81           1
    52       87           2
    52       88           0
    53        5           4
    53       11           3
    53       26           1
    53       46           1
    53       50           2
    53       56           1
    53       66           3
    53       76           3
    53       80           0
    53       82           2
    54        6           3
    54       24           4
    54       35           1
    54       44           0
    54       56           4
    54       65           0
    54       67           1
    54       75           0
    54       76           4
    54       88           1
    55        6           4
    55       44           1
    55       48           3
    55       67           4
    55       81           3
    55       85           3
    55       87           1
    55       90           2
    55       92           1
    55       93           2
    56       21           3
    56       31           2
    56       39           4
    56       43           2
    56       56           4
    56       58           2
    56       69           3
    56       74           4
    56       77           3
    56       82           1
    57       19           3
    57       32           1
    57       38           0
    57       52           2
    57       62           3
    57       73           4
    57       77           0
    57       80           2
    57       85           0
    57       91           4
    58       46           0
    58       48           3
    58       52           0
    58       54           2
    58       58           4
    58       61           3
    58       75           1
    58       83           3
    58       85           1
    58       87           1
    59        2           2
    59       15           2
    59       16           3
    59       27           0
    59       28           1
    59       29           1
    59       35           1
    59       49           4
    59       62           4
    59       64           1
    60        4           1
    60       15           3
    60       40           3
    60       47           3
    60       52           2
    60       57           0
    60       58           3
    60       64           2
    60       67           3
    60       71           3
    61       18           2
    61       38           1
    61       41           2
    61       49           1
    61       55           1
    61       63           1
    61       68           0
    61       77           4
    61       79           2
    61       86           3
    62        1           3
    62        2           2
    62        6           2
    62        8           4
    62       10           0
    62       12           1
    62       14           2
    62       35           1
    62       37           3
    62       44           2
    63       10           4
    63       14           1
    63       17           2
    63       22           4
    63       37           3
    63       54           3
    63       55           0
    63       69           2
    63       75           3
    63       91           0
    64       15           2
    64       20           4
    64       22           2
    64       28           3
    64       32           1
    64       58           2
    64       73           2
    64       92           4
    64       94           2
    64       95           3
    65        5           3
    65       26           3
    65       32           1
    65       33           2
    65       41           2
    65       44           2
    65       45           2
    65       67           0
    65       77           2
    65       78           1
    66        2           4
    66       10           2
    66       46           2
    66       54           1
    66       59           3
    66       76           1
    66       92           4
    66       94           3
    66       96           1
    66       98           0
    67        5           4
    67        7           3
    67       17           2
    67       23           3
    67       32           0
    67       46           3
    67       57           3
    67       59           1
    67       60           1
    67       83           2
    68        9           2
    68       16           4
    68       34           3
    68       56           1
    68       76           1
    68       79           4
    68       88           0
    68       90           3
    68       91           0
    68       92           3
    69        5           1
    69        8           1
    69       25           0
    69       66           3
    69       67           3
    69       71           4
    69       79           0
    69       83           2
    69       88           4
    69       91           1
    70        1           0
    70        2           3
    70        7           3
    70       39           2
    70       59           4
    70       61           3
    70       73           3
    70       85           2
    70       86           3
    70       89           1
    71        3           4
    71       16           3
    71       20           3
    71       31           0
    71       40           1
    71       41           1
    71       43           4
    71       47           0
    71       52           4
    71       53           0
    72       10           1
    72       44           1
    72       58           2
    72       87           1
    72       89           4
    72       90           3
    72       91           3
    72       93           1
    72       94           4
    72       97           1
    73        9           2
    73       10           1
    73       26           2
    73       34           4
    73       40           1
    73       46           0
    73       55           3
    73       73           3
    73       74           0
    73       88           3
    74       29           4
    74       59           1
    74       74           2
    74       77           3
    74       80           2
    74       88           1
    74       93           1
    74       95           0
    74       97           2
    74       99           0
    75       19           4
    75       21           0
    75       36           1
    75       54           0
    75       62           4
    75       64           2
    75       71           2
    75       80           0
    75       85           2
    75       88           2
    76        1           0
    76       22           3
    76       25           3
    76       37           0
    76       38           0
    76       57           0
    76       68           2
    76       71           0
    76       72           3
    76       89           3
    77        6           3
    77       27           0
    77       29           1
    77       30           0
    77       33           1
    77       47           2
    77       61           4
    77       83           0
    77       84           4
    77       93           4
    78        7           2
    78       18           2
    78       25           0
    78       55           4
    78       57           1
    78       65           0
    78       78           1
    78       87           3
    78       96           4
    78       99           3
    79        8           1
    79       17           4
    79       24           1
    79       48           1
    79       70           3
    79       79           2
    79       97           0
    79       98           2
    79       99           3
    79      100           2
    80        5           2
    80        9           4
    80       36           2
    80       46           0
    80       53           2
    80       63           0
    80       78           3
    80       79           1
    80       81           1
    80       85           4
    81       17           2
    81       25           1
    81       26           4
    81       30           4
    81       31           0
    81       34           3
    81       36           3
    81       38           4
    81       40           0
    81       65           3
    82       12           4
    82       14           2
    82       50           4
    82       93           2
    82       95           2
    82       96           4
    82       97           2
    82       98           4
    82       99           3
    82      100           3
    83        2           4
    83       16           3
    83       26           3
    83       54           3
    83       57           2
    83       60           0
    83       62           3
    83       72           2
    83       78           2
    83       87           2
    84        1           2
    84       13           0
    84       18           2
    84       33           3
    84       51           3
    84       57           2
    84       66           4
    84       87           4
    84       97           4
    84      100           4
    85        8           3
    85       42           3
    85       45           0
    85       47           0
    85       66           4
    85       69           1
    85       75           1
    85       77           2
    85       84           1
    85       86           1
    86        9           1
    86       12           0
    86       13           4
    86       22           1
    86       32           2
    86       36           2
    86       41           3
    86       50           4
    86       59           3
    86       65           3
    87       19           0
    87       27           0
    87       28           0
    87       53           1
    87       56           0
    87       67           0
    87       69           0
    87       82           3
    87       88           1
    87       96           3
    88       14           0
    88       17           4
    88       21           1
    88       40           3
    88       45           4
    88       94           1
    88       97           0
    88       98           1
    88       99           1
    88      100           2
    89        9           1
    89       19           3
    89       20           3
    89       24           0
    89       30           1
    89       38           0
    89       58           2
    89       69           2
    89       70           0
    89       79           4
    90        6           1
    90        8           0
    90       16           4
    90       20           1
    90       31           2
    90       41           0
    90       50           0
    90       56           1
    90       69           3
    90       80           1
    91       15           3
    91       25           1
    91       26           2
    91       43           0
    91       45           3
    91       91           4
    91       93           2
    91       96           3
    91       98           0
    91      100           0
    92        1           1
    92        8           2
    92       11           0
    92       12           2
    92       23           0
    92       28           0
    92       33           1
    92       36           2
    92       38           4
    92       43           0
    93        2           2
    93        7           2
    93       11           3
    93       24           3
    93       32           1
    93       37           0
    93       47           1
    93       69           2
    93       74           0
    93       78           4
    94        2           4
    94       21           3
    94       35           4
    94       75           2
    94       83           2
    94       91           0
    94       93           3
    94       94           1
    94       95           2
    94       96           1
    95       18           2
    95       20           3
    95       22           1
    95       27           3
    95       34           4
    95       38           0
    95       44           0
    95       45           4
    95       52           3
    95       63           0
    96       19           1
    96       21           3
    96       55           1
    96       63           1
    96       86           1
    96       87           2
    96       91           3
    96       93           2
    96       94           3
    96       96           1
    97        3           3
    97        7           0
    97       27           4
    97       70           3
    97       82           4
    97       85           4
    97       88           0
    97       90           0
    97       95           0
    97       99           3
    98        9           4
    98       53           4
    98       55           4
    98       61           4
    98       64           4
    98       66           0
    98       77           2
    98       80           2
    98       81           4
    98       85           0
    99       29           3
    99       50           1
    99       58           0
    99       66           4
    99       68           1
    99       84           1
    99       94           4
    99       98           0
    99       99           4
    99      100           1
   100       35           3
   100       50           4
   100       53           4
   100       62           1
   100       70           1
   100       72           4
   100       74           0
   100       80           1
   100       81           4
   100       89           0
